language Essence 1.3

letting blksize_delta be
        function(1 --> 7, 2 --> 7, 3 --> 7, 4 --> 7, 5 --> 7, 6 --> 7, 7 --> 7, 8 --> 7, 9 --> 7, 10 --> 7, 11 --> 7,
                 12 --> 7, 13 --> 7, 14 --> 7, 15 --> 7, 16 --> 7, 17 --> 7, 18 --> 7, 19 --> 7, 20 --> 7, 21 --> 7,
                 22 --> 7, 23 --> 7, 24 --> 7, 25 --> 7, 26 --> 7, 27 --> 7, 28 --> 7, 29 --> 7, 30 --> 7, 31 --> 7,
                 32 --> 7, 33 --> 7, 34 --> 7, 35 --> 7, 36 --> 7, 37 --> 7, 38 --> 7, 39 --> 7, 40 --> 7, 41 --> 7,
                 42 --> 7, 43 --> 7, 44 --> 7, 45 --> 7, 46 --> 7, 47 --> 7, 48 --> 7, 49 --> 7, 50 --> 7, 51 --> 7,
                 52 --> 7, 53 --> 7, 54 --> 7, 55 --> 7, 56 --> 7, 57 --> 7, 58 --> 7, 59 --> 7, 60 --> 7, 61 --> 7,
                 62 --> 7, 63 --> 7, 64 --> 7, 65 --> 7, 66 --> 7, 67 --> 7, 68 --> 7, 69 --> 7, 70 --> 7, 71 --> 7,
                 72 --> 7)
letting maxcars be
        function(1 --> 8, 2 --> 9, 3 --> 8, 4 --> 8, 5 --> 8, 6 --> 8, 7 --> 9, 8 --> 9, 9 --> 9, 10 --> 8, 11 --> 8,
                 12 --> 9, 13 --> 9, 14 --> 8, 15 --> 8, 16 --> 9, 17 --> 9, 18 --> 9, 19 --> 9, 20 --> 9, 21 --> 9,
                 22 --> 8, 23 --> 9, 24 --> 8, 25 --> 9, 26 --> 9, 27 --> 9, 28 --> 9, 29 --> 8, 30 --> 8, 31 --> 9,
                 32 --> 9, 33 --> 9, 34 --> 9, 35 --> 8, 36 --> 9, 37 --> 9, 38 --> 9, 39 --> 8, 40 --> 8, 41 --> 8,
                 42 --> 8, 43 --> 8, 44 --> 8, 45 --> 8, 46 --> 8, 47 --> 9, 48 --> 9, 49 --> 9, 50 --> 9, 51 --> 8,
                 52 --> 9, 53 --> 9, 54 --> 9, 55 --> 8, 56 --> 8, 57 --> 9, 58 --> 9, 59 --> 8, 60 --> 9, 61 --> 8,
                 62 --> 9, 63 --> 9, 64 --> 8, 65 --> 9, 66 --> 9, 67 --> 9, 68 --> 9, 69 --> 8, 70 --> 9, 71 --> 8,
                 72 --> 9)
letting n_cars be 116
letting n_classes be 29
letting n_options be 72
letting quantity be
        function(1 --> 4, 2 --> 4, 3 --> 4, 4 --> 4, 5 --> 4, 6 --> 4, 7 --> 4, 8 --> 4, 9 --> 4, 10 --> 4, 11 --> 4,
                 12 --> 4, 13 --> 4, 14 --> 4, 15 --> 4, 16 --> 4, 17 --> 4, 18 --> 4, 19 --> 4, 20 --> 4, 21 --> 4,
                 22 --> 4, 23 --> 4, 24 --> 4, 25 --> 4, 26 --> 4, 27 --> 4, 28 --> 4, 29 --> 4)
letting usage be
        relation((1, 2), (1, 4), (1, 8), (1, 9), (1, 14), (1, 19), (1, 20), (1, 21), (1, 22), (1, 25), (1, 27), (1, 28),
                 (1, 29), (1, 31), (1, 34), (1, 37), (1, 38), (1, 39), (1, 40), (1, 41), (1, 42), (1, 44), (1, 45),
                 (1, 46), (1, 47), (1, 51), (1, 52), (1, 53), (1, 57), (1, 59), (1, 60), (1, 63), (1, 64), (1, 68),
                 (1, 69), (1, 71), (2, 2), (2, 3), (2, 4), (2, 8), (2, 10), (2, 12), (2, 13), (2, 15), (2, 17), (2, 19),
                 (2, 20), (2, 23), (2, 25), (2, 26), (2, 27), (2, 30), (2, 31), (2, 35), (2, 36), (2, 38), (2, 39),
                 (2, 40), (2, 45), (2, 49), (2, 50), (2, 51), (2, 54), (2, 55), (2, 56), (2, 57), (2, 58), (2, 59),
                 (2, 60), (2, 61), (2, 63), (2, 64), (2, 65), (2, 66), (2, 67), (2, 68), (2, 69), (2, 70), (2, 71),
                 (3, 2), (3, 4), (3, 5), (3, 8), (3, 9), (3, 10), (3, 13), (3, 16), (3, 20), (3, 21), (3, 22), (3, 25),
                 (3, 27), (3, 30), (3, 32), (3, 34), (3, 36), (3, 37), (3, 40), (3, 41), (3, 42), (3, 48), (3, 49),
                 (3, 50), (3, 51), (3, 53), (3, 54), (3, 56), (3, 57), (3, 60), (3, 61), (3, 62), (3, 63), (3, 66),
                 (3, 69), (3, 70), (3, 72), (4, 1), (4, 2), (4, 3), (4, 4), (4, 5), (4, 6), (4, 7), (4, 8), (4, 9),
                 (4, 11), (4, 12), (4, 13), (4, 18), (4, 21), (4, 22), (4, 24), (4, 27), (4, 28), (4, 30), (4, 34),
                 (4, 35), (4, 36), (4, 37), (4, 38), (4, 41), (4, 42), (4, 44), (4, 45), (4, 47), (4, 48), (4, 50),
                 (4, 51), (4, 52), (4, 55), (4, 56), (4, 57), (4, 58), (4, 60), (4, 61), (4, 62), (4, 64), (4, 65),
                 (4, 67), (4, 69), (4, 72), (5, 5), (5, 6), (5, 8), (5, 9), (5, 11), (5, 12), (5, 15), (5, 16), (5, 18),
                 (5, 21), (5, 22), (5, 23), (5, 26), (5, 27), (5, 31), (5, 35), (5, 39), (5, 40), (5, 43), (5, 44),
                 (5, 46), (5, 48), (5, 49), (5, 51), (5, 52), (5, 53), (5, 55), (5, 57), (5, 58), (5, 60), (5, 64),
                 (5, 65), (5, 69), (5, 70), (5, 71), (6, 1), (6, 3), (6, 7), (6, 9), (6, 10), (6, 11), (6, 13), (6, 14),
                 (6, 15), (6, 17), (6, 18), (6, 19), (6, 22), (6, 26), (6, 28), (6, 29), (6, 31), (6, 33), (6, 34),
                 (6, 35), (6, 36), (6, 37), (6, 38), (6, 39), (6, 40), (6, 44), (6, 45), (6, 47), (6, 50), (6, 51),
                 (6, 52), (6, 54), (6, 55), (6, 56), (6, 58), (6, 59), (6, 61), (6, 62), (6, 63), (6, 69), (6, 71),
                 (6, 72), (7, 1), (7, 5), (7, 7), (7, 8), (7, 9), (7, 10), (7, 12), (7, 14), (7, 15), (7, 17), (7, 19),
                 (7, 20), (7, 22), (7, 23), (7, 25), (7, 28), (7, 29), (7, 30), (7, 31), (7, 34), (7, 36), (7, 43),
                 (7, 45), (7, 47), (7, 48), (7, 49), (7, 50), (7, 51), (7, 52), (7, 54), (7, 55), (7, 58), (7, 61),
                 (7, 63), (7, 64), (7, 65), (7, 67), (7, 68), (7, 69), (8, 3), (8, 5), (8, 12), (8, 14), (8, 15),
                 (8, 20), (8, 21), (8, 24), (8, 25), (8, 27), (8, 28), (8, 30), (8, 31), (8, 32), (8, 34), (8, 35),
                 (8, 36), (8, 37), (8, 39), (8, 42), (8, 44), (8, 45), (8, 47), (8, 48), (8, 52), (8, 53), (8, 55),
                 (8, 56), (8, 57), (8, 58), (8, 61), (8, 63), (8, 64), (8, 65), (8, 67), (8, 70), (8, 72), (9, 2),
                 (9, 3), (9, 4), (9, 6), (9, 7), (9, 8), (9, 9), (9, 14), (9, 16), (9, 17), (9, 18), (9, 19), (9, 23),
                 (9, 25), (9, 28), (9, 30), (9, 31), (9, 32), (9, 33), (9, 34), (9, 36), (9, 39), (9, 40), (9, 41),
                 (9, 44), (9, 47), (9, 48), (9, 49), (9, 50), (9, 56), (9, 57), (9, 61), (9, 63), (9, 65), (9, 68),
                 (9, 70), (10, 2), (10, 9), (10, 13), (10, 15), (10, 19), (10, 21), (10, 22), (10, 23), (10, 24),
                 (10, 25), (10, 27), (10, 28), (10, 31), (10, 33), (10, 34), (10, 35), (10, 38), (10, 39), (10, 45),
                 (10, 47), (10, 48), (10, 52), (10, 53), (10, 54), (10, 59), (10, 60), (10, 64), (10, 65), (10, 66),
                 (10, 69), (10, 70), (11, 2), (11, 6), (11, 11), (11, 13), (11, 15), (11, 18), (11, 19), (11, 21),
                 (11, 22), (11, 24), (11, 28), (11, 30), (11, 31), (11, 32), (11, 35), (11, 37), (11, 38), (11, 41),
                 (11, 42), (11, 44), (11, 47), (11, 49), (11, 50), (11, 51), (11, 52), (11, 53), (11, 58), (11, 59),
                 (11, 62), (11, 64), (11, 65), (11, 67), (11, 70), (11, 71), (11, 72), (12, 2), (12, 3), (12, 4),
                 (12, 5), (12, 7), (12, 8), (12, 10), (12, 15), (12, 18), (12, 19), (12, 20), (12, 21), (12, 22),
                 (12, 25), (12, 30), (12, 36), (12, 37), (12, 40), (12, 41), (12, 42), (12, 43), (12, 44), (12, 45),
                 (12, 46), (12, 47), (12, 48), (12, 52), (12, 54), (12, 56), (12, 57), (12, 58), (12, 59), (12, 61),
                 (12, 62), (12, 66), (12, 67), (12, 69), (12, 70), (12, 71), (13, 1), (13, 3), (13, 4), (13, 6),
                 (13, 8), (13, 9), (13, 12), (13, 13), (13, 17), (13, 19), (13, 22), (13, 23), (13, 24), (13, 25),
                 (13, 32), (13, 33), (13, 34), (13, 36), (13, 37), (13, 40), (13, 41), (13, 42), (13, 43), (13, 46),
                 (13, 49), (13, 50), (13, 53), (13, 59), (13, 64), (13, 65), (13, 66), (13, 68), (13, 69), (13, 70),
                 (13, 71), (14, 5), (14, 10), (14, 12), (14, 14), (14, 17), (14, 18), (14, 20), (14, 21), (14, 26),
                 (14, 28), (14, 29), (14, 30), (14, 34), (14, 35), (14, 36), (14, 39), (14, 42), (14, 43), (14, 44),
                 (14, 46), (14, 47), (14, 48), (14, 49), (14, 50), (14, 52), (14, 53), (14, 55), (14, 56), (14, 60),
                 (14, 71), (15, 2), (15, 3), (15, 4), (15, 5), (15, 6), (15, 9), (15, 11), (15, 13), (15, 15), (15, 16),
                 (15, 20), (15, 22), (15, 24), (15, 28), (15, 29), (15, 30), (15, 34), (15, 35), (15, 39), (15, 40),
                 (15, 44), (15, 45), (15, 47), (15, 50), (15, 52), (15, 53), (15, 54), (15, 57), (15, 59), (15, 60),
                 (15, 61), (15, 62), (15, 63), (15, 64), (15, 65), (15, 68), (15, 69), (15, 71), (16, 2), (16, 4),
                 (16, 7), (16, 8), (16, 9), (16, 10), (16, 11), (16, 12), (16, 14), (16, 15), (16, 17), (16, 19),
                 (16, 20), (16, 21), (16, 25), (16, 26), (16, 32), (16, 33), (16, 34), (16, 35), (16, 39), (16, 40),
                 (16, 41), (16, 42), (16, 43), (16, 45), (16, 48), (16, 50), (16, 51), (16, 54), (16, 59), (16, 60),
                 (16, 63), (16, 66), (16, 68), (16, 69), (17, 1), (17, 3), (17, 6), (17, 7), (17, 10), (17, 12),
                 (17, 14), (17, 16), (17, 17), (17, 18), (17, 19), (17, 20), (17, 21), (17, 28), (17, 36), (17, 38),
                 (17, 40), (17, 42), (17, 45), (17, 47), (17, 50), (17, 51), (17, 55), (17, 59), (17, 61), (17, 63),
                 (17, 65), (17, 66), (17, 68), (17, 70), (18, 1), (18, 4), (18, 9), (18, 12), (18, 19), (18, 20),
                 (18, 22), (18, 23), (18, 24), (18, 26), (18, 27), (18, 29), (18, 30), (18, 31), (18, 32), (18, 33),
                 (18, 34), (18, 36), (18, 37), (18, 40), (18, 41), (18, 42), (18, 45), (18, 48), (18, 52), (18, 57),
                 (18, 61), (18, 62), (18, 69), (18, 70), (19, 1), (19, 2), (19, 5), (19, 8), (19, 9), (19, 12),
                 (19, 13), (19, 14), (19, 15), (19, 16), (19, 17), (19, 21), (19, 24), (19, 26), (19, 29), (19, 31),
                 (19, 32), (19, 34), (19, 35), (19, 37), (19, 40), (19, 42), (19, 43), (19, 44), (19, 47), (19, 54),
                 (19, 57), (19, 65), (19, 67), (19, 70), (19, 71), (20, 1), (20, 2), (20, 3), (20, 4), (20, 5), (20, 7),
                 (20, 8), (20, 11), (20, 13), (20, 16), (20, 18), (20, 20), (20, 21), (20, 22), (20, 23), (20, 25),
                 (20, 28), (20, 30), (20, 33), (20, 34), (20, 35), (20, 36), (20, 40), (20, 47), (20, 48), (20, 49),
                 (20, 50), (20, 53), (20, 57), (20, 58), (20, 60), (20, 62), (20, 63), (20, 64), (20, 67), (20, 68),
                 (20, 69), (20, 70), (20, 71), (21, 1), (21, 5), (21, 9), (21, 13), (21, 17), (21, 18), (21, 20),
                 (21, 22), (21, 27), (21, 28), (21, 29), (21, 30), (21, 31), (21, 33), (21, 34), (21, 36), (21, 37),
                 (21, 41), (21, 42), (21, 45), (21, 47), (21, 48), (21, 49), (21, 51), (21, 52), (21, 55), (21, 60),
                 (21, 64), (21, 66), (21, 67), (21, 68), (21, 69), (21, 70), (22, 1), (22, 3), (22, 5), (22, 7),
                 (22, 9), (22, 11), (22, 12), (22, 14), (22, 15), (22, 16), (22, 21), (22, 22), (22, 23), (22, 24),
                 (22, 27), (22, 28), (22, 30), (22, 33), (22, 34), (22, 35), (22, 38), (22, 40), (22, 41), (22, 42),
                 (22, 44), (22, 45), (22, 46), (22, 52), (22, 53), (22, 55), (22, 57), (22, 63), (22, 64), (22, 65),
                 (22, 69), (22, 71), (23, 1), (23, 3), (23, 4), (23, 6), (23, 9), (23, 13), (23, 14), (23, 19),
                 (23, 21), (23, 26), (23, 29), (23, 30), (23, 31), (23, 32), (23, 36), (23, 37), (23, 38), (23, 39),
                 (23, 44), (23, 45), (23, 47), (23, 48), (23, 51), (23, 56), (23, 58), (23, 60), (23, 61), (23, 63),
                 (23, 66), (23, 67), (23, 69), (23, 70), (23, 71), (24, 4), (24, 7), (24, 12), (24, 13), (24, 14),
                 (24, 15), (24, 16), (24, 17), (24, 19), (24, 20), (24, 22), (24, 23), (24, 25), (24, 28), (24, 29),
                 (24, 30), (24, 32), (24, 35), (24, 36), (24, 38), (24, 42), (24, 43), (24, 44), (24, 45), (24, 46),
                 (24, 48), (24, 57), (24, 58), (24, 59), (24, 61), (24, 64), (24, 67), (24, 68), (24, 69), (24, 70),
                 (24, 71), (25, 1), (25, 3), (25, 4), (25, 7), (25, 8), (25, 9), (25, 10), (25, 11), (25, 12), (25, 15),
                 (25, 16), (25, 19), (25, 23), (25, 25), (25, 26), (25, 29), (25, 30), (25, 35), (25, 36), (25, 37),
                 (25, 38), (25, 46), (25, 49), (25, 50), (25, 53), (25, 55), (25, 58), (25, 62), (25, 63), (25, 64),
                 (25, 65), (25, 67), (25, 68), (25, 70), (26, 2), (26, 3), (26, 4), (26, 7), (26, 8), (26, 9), (26, 10),
                 (26, 11), (26, 13), (26, 16), (26, 23), (26, 25), (26, 26), (26, 27), (26, 28), (26, 30), (26, 31),
                 (26, 32), (26, 33), (26, 36), (26, 37), (26, 40), (26, 42), (26, 43), (26, 45), (26, 49), (26, 52),
                 (26, 54), (26, 56), (26, 58), (26, 60), (26, 62), (26, 63), (26, 67), (26, 68), (26, 69), (26, 71),
                 (27, 1), (27, 2), (27, 3), (27, 6), (27, 7), (27, 8), (27, 10), (27, 11), (27, 15), (27, 16), (27, 17),
                 (27, 18), (27, 25), (27, 26), (27, 30), (27, 31), (27, 33), (27, 35), (27, 40), (27, 41), (27, 44),
                 (27, 46), (27, 47), (27, 50), (27, 51), (27, 52), (27, 54), (27, 55), (27, 58), (27, 59), (27, 61),
                 (27, 69), (27, 70), (28, 3), (28, 4), (28, 6), (28, 11), (28, 12), (28, 15), (28, 16), (28, 17),
                 (28, 19), (28, 20), (28, 21), (28, 23), (28, 24), (28, 25), (28, 26), (28, 30), (28, 34), (28, 35),
                 (28, 39), (28, 43), (28, 45), (28, 47), (28, 48), (28, 49), (28, 50), (28, 53), (28, 54), (28, 55),
                 (28, 61), (28, 65), (28, 70), (28, 71), (29, 72))
$ Visualisation for usage
$  1  2
$  1  4
$  1  8
$  1  9
$  1 14
$  1 19
$  1 20
$  1 21
$  1 22
$  1 25
$  1 27
$  1 28
$  1 29
$  1 31
$  1 34
$  1 37
$  1 38
$  1 39
$  1 40
$  1 41
$  1 42
$  1 44
$  1 45
$  1 46
$  1 47
$  1 51
$  1 52
$  1 53
$  1 57
$  1 59
$  1 60
$  1 63
$  1 64
$  1 68
$  1 69
$  1 71
$  2  2
$  2  3
$  2  4
$  2  8
$  2 10
$  2 12
$  2 13
$  2 15
$  2 17
$  2 19
$  2 20
$  2 23
$  2 25
$  2 26
$  2 27
$  2 30
$  2 31
$  2 35
$  2 36
$  2 38
$  2 39
$  2 40
$  2 45
$  2 49
$  2 50
$  2 51
$  2 54
$  2 55
$  2 56
$  2 57
$  2 58
$  2 59
$  2 60
$  2 61
$  2 63
$  2 64
$  2 65
$  2 66
$  2 67
$  2 68
$  2 69
$  2 70
$  2 71
$  3  2
$  3  4
$  3  5
$  3  8
$  3  9
$  3 10
$  3 13
$  3 16
$  3 20
$  3 21
$  3 22
$  3 25
$  3 27
$  3 30
$  3 32
$  3 34
$  3 36
$  3 37
$  3 40
$  3 41
$  3 42
$  3 48
$  3 49
$  3 50
$  3 51
$  3 53
$  3 54
$  3 56
$  3 57
$  3 60
$  3 61
$  3 62
$  3 63
$  3 66
$  3 69
$  3 70
$  3 72
$  4  1
$  4  2
$  4  3
$  4  4
$  4  5
$  4  6
$  4  7
$  4  8
$  4  9
$  4 11
$  4 12
$  4 13
$  4 18
$  4 21
$  4 22
$  4 24
$  4 27
$  4 28
$  4 30
$  4 34
$  4 35
$  4 36
$  4 37
$  4 38
$  4 41
$  4 42
$  4 44
$  4 45
$  4 47
$  4 48
$  4 50
$  4 51
$  4 52
$  4 55
$  4 56
$  4 57
$  4 58
$  4 60
$  4 61
$  4 62
$  4 64
$  4 65
$  4 67
$  4 69
$  4 72
$  5  5
$  5  6
$  5  8
$  5  9
$  5 11
$  5 12
$  5 15
$  5 16
$  5 18
$  5 21
$  5 22
$  5 23
$  5 26
$  5 27
$  5 31
$  5 35
$  5 39
$  5 40
$  5 43
$  5 44
$  5 46
$  5 48
$  5 49
$  5 51
$  5 52
$  5 53
$  5 55
$  5 57
$  5 58
$  5 60
$  5 64
$  5 65
$  5 69
$  5 70
$  5 71
$  6  1
$  6  3
$  6  7
$  6  9
$  6 10
$  6 11
$  6 13
$  6 14
$  6 15
$  6 17
$  6 18
$  6 19
$  6 22
$  6 26
$  6 28
$  6 29
$  6 31
$  6 33
$  6 34
$  6 35
$  6 36
$  6 37
$  6 38
$  6 39
$  6 40
$  6 44
$  6 45
$  6 47
$  6 50
$  6 51
$  6 52
$  6 54
$  6 55
$  6 56
$  6 58
$  6 59
$  6 61
$  6 62
$  6 63
$  6 69
$  6 71
$  6 72
$  7  1
$  7  5
$  7  7
$  7  8
$  7  9
$  7 10
$  7 12
$  7 14
$  7 15
$  7 17
$  7 19
$  7 20
$  7 22
$  7 23
$  7 25
$  7 28
$  7 29
$  7 30
$  7 31
$  7 34
$  7 36
$  7 43
$  7 45
$  7 47
$  7 48
$  7 49
$  7 50
$  7 51
$  7 52
$  7 54
$  7 55
$  7 58
$  7 61
$  7 63
$  7 64
$  7 65
$  7 67
$  7 68
$  7 69
$  8  3
$  8  5
$  8 12
$  8 14
$  8 15
$  8 20
$  8 21
$  8 24
$  8 25
$  8 27
$  8 28
$  8 30
$  8 31
$  8 32
$  8 34
$  8 35
$  8 36
$  8 37
$  8 39
$  8 42
$  8 44
$  8 45
$  8 47
$  8 48
$  8 52
$  8 53
$  8 55
$  8 56
$  8 57
$  8 58
$  8 61
$  8 63
$  8 64
$  8 65
$  8 67
$  8 70
$  8 72
$  9  2
$  9  3
$  9  4
$  9  6
$  9  7
$  9  8
$  9  9
$  9 14
$  9 16
$  9 17
$  9 18
$  9 19
$  9 23
$  9 25
$  9 28
$  9 30
$  9 31
$  9 32
$  9 33
$  9 34
$  9 36
$  9 39
$  9 40
$  9 41
$  9 44
$  9 47
$  9 48
$  9 49
$  9 50
$  9 56
$  9 57
$  9 61
$  9 63
$  9 65
$  9 68
$  9 70
$ 10  2
$ 10  9
$ 10 13
$ 10 15
$ 10 19
$ 10 21
$ 10 22
$ 10 23
$ 10 24
$ 10 25
$ 10 27
$ 10 28
$ 10 31
$ 10 33
$ 10 34
$ 10 35
$ 10 38
$ 10 39
$ 10 45
$ 10 47
$ 10 48
$ 10 52
$ 10 53
$ 10 54
$ 10 59
$ 10 60
$ 10 64
$ 10 65
$ 10 66
$ 10 69
$ 10 70
$ 11  2
$ 11  6
$ 11 11
$ 11 13
$ 11 15
$ 11 18
$ 11 19
$ 11 21
$ 11 22
$ 11 24
$ 11 28
$ 11 30
$ 11 31
$ 11 32
$ 11 35
$ 11 37
$ 11 38
$ 11 41
$ 11 42
$ 11 44
$ 11 47
$ 11 49
$ 11 50
$ 11 51
$ 11 52
$ 11 53
$ 11 58
$ 11 59
$ 11 62
$ 11 64
$ 11 65
$ 11 67
$ 11 70
$ 11 71
$ 11 72
$ 12  2
$ 12  3
$ 12  4
$ 12  5
$ 12  7
$ 12  8
$ 12 10
$ 12 15
$ 12 18
$ 12 19
$ 12 20
$ 12 21
$ 12 22
$ 12 25
$ 12 30
$ 12 36
$ 12 37
$ 12 40
$ 12 41
$ 12 42
$ 12 43
$ 12 44
$ 12 45
$ 12 46
$ 12 47
$ 12 48
$ 12 52
$ 12 54
$ 12 56
$ 12 57
$ 12 58
$ 12 59
$ 12 61
$ 12 62
$ 12 66
$ 12 67
$ 12 69
$ 12 70
$ 12 71
$ 13  1
$ 13  3
$ 13  4
$ 13  6
$ 13  8
$ 13  9
$ 13 12
$ 13 13
$ 13 17
$ 13 19
$ 13 22
$ 13 23
$ 13 24
$ 13 25
$ 13 32
$ 13 33
$ 13 34
$ 13 36
$ 13 37
$ 13 40
$ 13 41
$ 13 42
$ 13 43
$ 13 46
$ 13 49
$ 13 50
$ 13 53
$ 13 59
$ 13 64
$ 13 65
$ 13 66
$ 13 68
$ 13 69
$ 13 70
$ 13 71
$ 14  5
$ 14 10
$ 14 12
$ 14 14
$ 14 17
$ 14 18
$ 14 20
$ 14 21
$ 14 26
$ 14 28
$ 14 29
$ 14 30
$ 14 34
$ 14 35
$ 14 36
$ 14 39
$ 14 42
$ 14 43
$ 14 44
$ 14 46
$ 14 47
$ 14 48
$ 14 49
$ 14 50
$ 14 52
$ 14 53
$ 14 55
$ 14 56
$ 14 60
$ 14 71
$ 15  2
$ 15  3
$ 15  4
$ 15  5
$ 15  6
$ 15  9
$ 15 11
$ 15 13
$ 15 15
$ 15 16
$ 15 20
$ 15 22
$ 15 24
$ 15 28
$ 15 29
$ 15 30
$ 15 34
$ 15 35
$ 15 39
$ 15 40
$ 15 44
$ 15 45
$ 15 47
$ 15 50
$ 15 52
$ 15 53
$ 15 54
$ 15 57
$ 15 59
$ 15 60
$ 15 61
$ 15 62
$ 15 63
$ 15 64
$ 15 65
$ 15 68
$ 15 69
$ 15 71
$ 16  2
$ 16  4
$ 16  7
$ 16  8
$ 16  9
$ 16 10
$ 16 11
$ 16 12
$ 16 14
$ 16 15
$ 16 17
$ 16 19
$ 16 20
$ 16 21
$ 16 25
$ 16 26
$ 16 32
$ 16 33
$ 16 34
$ 16 35
$ 16 39
$ 16 40
$ 16 41
$ 16 42
$ 16 43
$ 16 45
$ 16 48
$ 16 50
$ 16 51
$ 16 54
$ 16 59
$ 16 60
$ 16 63
$ 16 66
$ 16 68
$ 16 69
$ 17  1
$ 17  3
$ 17  6
$ 17  7
$ 17 10
$ 17 12
$ 17 14
$ 17 16
$ 17 17
$ 17 18
$ 17 19
$ 17 20
$ 17 21
$ 17 28
$ 17 36
$ 17 38
$ 17 40
$ 17 42
$ 17 45
$ 17 47
$ 17 50
$ 17 51
$ 17 55
$ 17 59
$ 17 61
$ 17 63
$ 17 65
$ 17 66
$ 17 68
$ 17 70
$ 18  1
$ 18  4
$ 18  9
$ 18 12
$ 18 19
$ 18 20
$ 18 22
$ 18 23
$ 18 24
$ 18 26
$ 18 27
$ 18 29
$ 18 30
$ 18 31
$ 18 32
$ 18 33
$ 18 34
$ 18 36
$ 18 37
$ 18 40
$ 18 41
$ 18 42
$ 18 45
$ 18 48
$ 18 52
$ 18 57
$ 18 61
$ 18 62
$ 18 69
$ 18 70
$ 19  1
$ 19  2
$ 19  5
$ 19  8
$ 19  9
$ 19 12
$ 19 13
$ 19 14
$ 19 15
$ 19 16
$ 19 17
$ 19 21
$ 19 24
$ 19 26
$ 19 29
$ 19 31
$ 19 32
$ 19 34
$ 19 35
$ 19 37
$ 19 40
$ 19 42
$ 19 43
$ 19 44
$ 19 47
$ 19 54
$ 19 57
$ 19 65
$ 19 67
$ 19 70
$ 19 71
$ 20  1
$ 20  2
$ 20  3
$ 20  4
$ 20  5
$ 20  7
$ 20  8
$ 20 11
$ 20 13
$ 20 16
$ 20 18
$ 20 20
$ 20 21
$ 20 22
$ 20 23
$ 20 25
$ 20 28
$ 20 30
$ 20 33
$ 20 34
$ 20 35
$ 20 36
$ 20 40
$ 20 47
$ 20 48
$ 20 49
$ 20 50
$ 20 53
$ 20 57
$ 20 58
$ 20 60
$ 20 62
$ 20 63
$ 20 64
$ 20 67
$ 20 68
$ 20 69
$ 20 70
$ 20 71
$ 21  1
$ 21  5
$ 21  9
$ 21 13
$ 21 17
$ 21 18
$ 21 20
$ 21 22
$ 21 27
$ 21 28
$ 21 29
$ 21 30
$ 21 31
$ 21 33
$ 21 34
$ 21 36
$ 21 37
$ 21 41
$ 21 42
$ 21 45
$ 21 47
$ 21 48
$ 21 49
$ 21 51
$ 21 52
$ 21 55
$ 21 60
$ 21 64
$ 21 66
$ 21 67
$ 21 68
$ 21 69
$ 21 70
$ 22  1
$ 22  3
$ 22  5
$ 22  7
$ 22  9
$ 22 11
$ 22 12
$ 22 14
$ 22 15
$ 22 16
$ 22 21
$ 22 22
$ 22 23
$ 22 24
$ 22 27
$ 22 28
$ 22 30
$ 22 33
$ 22 34
$ 22 35
$ 22 38
$ 22 40
$ 22 41
$ 22 42
$ 22 44
$ 22 45
$ 22 46
$ 22 52
$ 22 53
$ 22 55
$ 22 57
$ 22 63
$ 22 64
$ 22 65
$ 22 69
$ 22 71
$ 23  1
$ 23  3
$ 23  4
$ 23  6
$ 23  9
$ 23 13
$ 23 14
$ 23 19
$ 23 21
$ 23 26
$ 23 29
$ 23 30
$ 23 31
$ 23 32
$ 23 36
$ 23 37
$ 23 38
$ 23 39
$ 23 44
$ 23 45
$ 23 47
$ 23 48
$ 23 51
$ 23 56
$ 23 58
$ 23 60
$ 23 61
$ 23 63
$ 23 66
$ 23 67
$ 23 69
$ 23 70
$ 23 71
$ 24  4
$ 24  7
$ 24 12
$ 24 13
$ 24 14
$ 24 15
$ 24 16
$ 24 17
$ 24 19
$ 24 20
$ 24 22
$ 24 23
$ 24 25
$ 24 28
$ 24 29
$ 24 30
$ 24 32
$ 24 35
$ 24 36
$ 24 38
$ 24 42
$ 24 43
$ 24 44
$ 24 45
$ 24 46
$ 24 48
$ 24 57
$ 24 58
$ 24 59
$ 24 61
$ 24 64
$ 24 67
$ 24 68
$ 24 69
$ 24 70
$ 24 71
$ 25  1
$ 25  3
$ 25  4
$ 25  7
$ 25  8
$ 25  9
$ 25 10
$ 25 11
$ 25 12
$ 25 15
$ 25 16
$ 25 19
$ 25 23
$ 25 25
$ 25 26
$ 25 29
$ 25 30
$ 25 35
$ 25 36
$ 25 37
$ 25 38
$ 25 46
$ 25 49
$ 25 50
$ 25 53
$ 25 55
$ 25 58
$ 25 62
$ 25 63
$ 25 64
$ 25 65
$ 25 67
$ 25 68
$ 25 70
$ 26  2
$ 26  3
$ 26  4
$ 26  7
$ 26  8
$ 26  9
$ 26 10
$ 26 11
$ 26 13
$ 26 16
$ 26 23
$ 26 25
$ 26 26
$ 26 27
$ 26 28
$ 26 30
$ 26 31
$ 26 32
$ 26 33
$ 26 36
$ 26 37
$ 26 40
$ 26 42
$ 26 43
$ 26 45
$ 26 49
$ 26 52
$ 26 54
$ 26 56
$ 26 58
$ 26 60
$ 26 62
$ 26 63
$ 26 67
$ 26 68
$ 26 69
$ 26 71
$ 27  1
$ 27  2
$ 27  3
$ 27  6
$ 27  7
$ 27  8
$ 27 10
$ 27 11
$ 27 15
$ 27 16
$ 27 17
$ 27 18
$ 27 25
$ 27 26
$ 27 30
$ 27 31
$ 27 33
$ 27 35
$ 27 40
$ 27 41
$ 27 44
$ 27 46
$ 27 47
$ 27 50
$ 27 51
$ 27 52
$ 27 54
$ 27 55
$ 27 58
$ 27 59
$ 27 61
$ 27 69
$ 27 70
$ 28  3
$ 28  4
$ 28  6
$ 28 11
$ 28 12
$ 28 15
$ 28 16
$ 28 17
$ 28 19
$ 28 20
$ 28 21
$ 28 23
$ 28 24
$ 28 25
$ 28 26
$ 28 30
$ 28 34
$ 28 35
$ 28 39
$ 28 43
$ 28 45
$ 28 47
$ 28 48
$ 28 49
$ 28 50
$ 28 53
$ 28 54
$ 28 55
$ 28 61
$ 28 65
$ 28 70
$ 28 71
$ 29 72

